%%%mzn-stat: initTime=0.003924916
%%%mzn-stat: objective=411
%%%mzn-stat: nodes=513
%%%mzn-stat: restarts=0
%%%mzn-stat: peakDepth=102
%%%mzn-stat: solveTime=0.032119081
%%%mzn-stat: variables=372
%%%mzn-stat: propagators=252
%%%mzn-stat: failures=411
%%%mzn-stat: propagations=75494
%%%mzn-stat: nogoods=411
%%%mzn-stat: AverageConflictSize=2
%%%mzn-stat: NumUnitNogoodsLearned=410
%%%mzn-stat: AverageLearnedNogoodLength=1.051094890510949
%%%mzn-stat: AverageBacktrackAmount=0
%%%mzn-stat: AverageLbd=1.002433090024331
%%%mzn-stat-end
maxleg = 411;
succ = array1d(1..20,[20, 8, 16, 19, 14, 18, 1, 7, 5, 12, 3, 2, 15, 11, 9, 4, 10, 13, 17, 6]);
% time elapsed: 0.20 s
----------
==========
% time elapsed: 0.20 s
%%%mzn-stat: initTime=0.003924916
%%%mzn-stat: objective=411
%%%mzn-stat: nodes=513
%%%mzn-stat: restarts=0
%%%mzn-stat: peakDepth=102
%%%mzn-stat: solveTime=0.032416974
%%%mzn-stat: variables=372
%%%mzn-stat: propagators=252
%%%mzn-stat: failures=411
%%%mzn-stat: propagations=75494
%%%mzn-stat: nogoods=411
%%%mzn-stat: AverageConflictSize=2
%%%mzn-stat: NumUnitNogoodsLearned=410
%%%mzn-stat: AverageLearnedNogoodLength=1.051094890510949
%%%mzn-stat: AverageBacktrackAmount=0
%%%mzn-stat: AverageLbd=1.002433090024331
%%%mzn-stat-end
